p cnf 16 43
-1 -2 0
-1 -3 0
-1 -4 0
-2 -3 0
-2 -4 0
-3 -4 0
-5 -6 0
-5 -7 0
-6 -7 0
-9 -11 0
-1 -5 0
-1 -9 0
-5 -9 0
-2 -6 0
-3 -7 0
-3 -11 0
-7 -11 0
-4 -16 0
8 0
10 0
12 0
13 0
14 0
15 0
2 1 0
3 2 0
4 3 0
5 1 0
6 2 0
6 5 0
7 3 0
7 6 0
9 5 0
11 7 0
1 6 3 0
1 6 9 0
1 6 11 16 0
4 7 2 5 0
9 6 11 16 0
2 5 0
2 7 4 0
3 6 9 0
3 6 11 16 0
